# Data for pyomo

set c := c1 c2 c3 c4;

set h := h1 h2 h3 h4;

set j := j1 j2;

set m := 
m1 
m2 
m3 
m4 
m5 
m6
;

set p :=
p1
p2
p3
p4
p5
p6
p7
p8
p9
p10
p11
p12
p13
p14
p15
p16
p17
p18
p19
p20
p21
p22
p23
p24
p25
p26
p27
p28
p29
p30
p31
p32
p33
p34
p35
p36
p37
p38
p39
p40
p41
p42
p43
p44
p45
p46
p47
p48
p49
p50
p51
p52
p53
p54
p55
p56
p57
p58
p59
p60
p61
p62
p63
p64
p65
p66
p67
p68
p69
p70
p71
p72
p73
p74
p75
p76
p77
p78
p79
p80
p81
p82
p83
p84
p85
p86
p87
p88
p89
p90
p91
p92
p93
p94
p95
p96
p97
p98
p99
p100
p101
p102
p103
p104
p105
p106
p107
p108
p109
p110
p111
p112
p113
p114
p115
p116
p117
p118
p119
p120
p121
p122
p123
p124
p125
p126
p127
p128
p129
p130
p131
p132
p133
p134
p135
p136
p137
p138
p139
p140
p141
p142
p143
p144
p145
p146
p147
p148
p149
p150
p151
p152
p153
p154
p155
p156
p157
p158
p159
p160
p161
p162
p163
p164
p165
p166
p167
p168
p169
p170
p171
p172
p173
p174
p175
p176
p177
p178
p179
p180
p181
p182
p183
p184
p185
p186
p187
p188
p189
p190
p191
p192
p193
p194
p195
p196
p197
p198
p199
p200
p201
p202
p203
p204
p205
p206
p207
p208
p209
p210
p211
p212
p213
p214
p215
p216
p217
p218
p219
p220
p221
p222
p223
p224
p225
p226
p227
p228
p229
p230
p231
p232
p233
p234
p235
p236
p237
p238
p239
p240
p241
p242
p243
p244
p245
p246
p247
p248
p249
p250
;

param CIM :=
m1 2216.13
m2 16621.00
m3 5540.33
m4 2216.13
m5 16621.00
m6 5540.33
;

param FCAP :=
m1 4
m2 31
m3 10
m4 4
m5 31
m6 10
;

param TT1 :=
j1 1
j2 2
;

param TT3 :=
j1 1
j2 2
;


param U1 :=
c1 m1 j1 1040
c1 m2 j1 2600
c1 m3 j1 2600
c1 m4 j1 2900
c1 m5 j1 3500
c1 m6 j1 3500
c2 m1 j1 2600
c2 m2 j1 200
c2 m3 j1 2600
c2 m4 j1 2900
c2 m5 j1 3500
c2 m6 j1 3500
c3 m1 j1 1840
c3 m2 j1 2000
c3 m3 j1 2900
c3 m4 j1 2900
c3 m5 j1 3500
c3 m6 j1 3500
c4 m1 j1 1640
c4 m2 j1 1820
c4 m3 j1 2900
c4 m4 j1 2900
c4 m5 j1 3500
c4 m6 j1 3500
c1 m1 j2 520
c1 m2 j2 520
c1 m3 j2 520
c1 m4 j2 936
c1 m5 j2 1053
c1 m6 j2 1053
c2 m1 j2 520
c2 m2 j2 100
c2 m3 j2 520
c2 m4 j2 936
c2 m5 j2 1053
c2 m6 j2 1053
c3 m1 j2 520
c3 m2 j2 520
c3 m3 j2 936
c3 m4 j2 936
c3 m5 j2 1053
c3 m6 j2 1053
c4 m1 j2 520
c4 m2 j2 520
c4 m3 j2 936
c4 m4 j2 936
c4 m5 j2 1053
c4 m6 j2 1053
;

param U3 :=
m1 h1 j1 1910
m1 h2 j1 1910
m1 h3 j1 2910
m1 h4 j1 1910
m2 h1 j1 2910
m2 h2 j1 400
m2 h3 j1 1910
m2 h4 j1 1910
m3 h1 j1 2910
m3 h2 j1 2910
m3 h3 j1 2910
m3 h4 j1 2910
m4 h1 j1 2910
m4 h2 j1 2910
m4 h3 j1 2910
m4 h4 j1 2910
m5 h1 j1 2910
m5 h2 j1 2910
m5 h3 j1 2910
m5 h4 j1 2910
m6 h1 j1 2910
m6 h2 j1 2910
m6 h3 j1 2910
m6 h4 j1 2910
m1 h1 j2 910
m1 h2 j2 910
m1 h3 j2 910
m1 h4 j2 910
m2 h1 j2 910
m2 h2 j2 300
m2 h3 j2 910
m2 h4 j2 910
m3 h1 j2 1755
m3 h2 j2 1755
m3 h3 j2 1755
m3 h4 j2 1755
m4 h1 j2 1755
m4 h2 j2 1755
m4 h3 j2 1755
m4 h4 j2 1755
m5 h1 j2 1855
m5 h2 j2 1855
m5 h3 j2 1855
m5 h4 j2 1755
m6 h1 j2 1855
m6 h2 j2 1855
m6 h3 j2 1855
m6 h4 j2 1855
;

param INC :=
p1 c3 44 1
p2 c2 61 1
p3 c3 34 1
p4 c1 86 1
p5 c3 11 1
p6 c3 38 1
p7 c3 78 1
p8 c3 70 1
p9 c4 51 1
p10 c1 42 1
p11 c3 79 1
p12 c1 21 1
p13 c3 8 1
p14 c1 23 1
p15 c2 29 1
p16 c2 80 1
p17 c1 87 1
p18 c1 77 1
p19 c1 10 1
p20 c3 54 1
p21 c3 89 1
p22 c2 65 1
p23 c2 47 1
p24 c1 83 1
p25 c2 22 1
p26 c3 64 1
p27 c1 39 1
p28 c1 83 1
p29 c3 10 1
p30 c4 67 1
p31 c2 28 1
p32 c2 70 1
p33 c4 57 1
p34 c3 69 1
p35 c4 66 1
p36 c4 66 1
p37 c1 47 1
p38 c1 27 1
p39 c4 60 1
p40 c2 33 1
p41 c3 41 1
p42 c1 3 1
p43 c2 90 1
p44 c3 85 1
p45 c4 81 1
p46 c4 80 1
p47 c2 64 1
p48 c1 70 1
p49 c3 54 1
p50 c2 36 1
p51 c3 85 1
p52 c4 57 1
p53 c4 37 1
p54 c1 34 1
p55 c3 20 1
p56 c2 62 1
p57 c3 22 1
p58 c4 36 1
p59 c3 73 1
p60 c1 24 1
p61 c4 22 1
p62 c4 28 1
p63 c3 38 1
p64 c1 87 1
p65 c2 82 1
p66 c3 63 1
p67 c3 7 1
p68 c3 60 1
p69 c2 6 1
p70 c4 61 1
p71 c4 15 1
p72 c1 18 1
p73 c1 72 1
p74 c2 58 1
p75 c1 69 1
p76 c2 66 1
p77 c3 2 1
p78 c1 56 1
p79 c2 4 1
p80 c3 22 1
p81 c2 36 1
p82 c3 68 1
p83 c1 52 1
p84 c4 61 1
p85 c3 28 1
p86 c3 3 1
p87 c1 88 1
p88 c3 7 1
p89 c3 3 1
p90 c3 83 1
p91 c4 82 1
p92 c1 85 1
p93 c1 68 1
p94 c3 38 1
p95 c1 17 1
p96 c3 67 1
p97 c2 84 1
p98 c3 21 1
p99 c4 2 1
p100 c4 9 1
p101 c2 4 1
p102 c4 48 1
p103 c2 41 1
p104 c4 79 1
p105 c1 34 1
p106 c1 18 1
p107 c1 85 1
p108 c2 73 1
p109 c1 31 1
p110 c4 76 1
p111 c1 43 1
p112 c1 20 1
p113 c1 4 1
p114 c2 29 1
p115 c4 7 1
p116 c4 36 1
p117 c1 60 1
p118 c3 38 1
p119 c4 85 1
p120 c2 16 1
p121 c1 58 1
p122 c2 74 1
p123 c2 24 1
p124 c3 35 1
p125 c3 23 1
p126 c3 51 1
p127 c3 26 1
p128 c3 47 1
p129 c2 7 1
p130 c2 86 1
p131 c4 19 1
p132 c1 4 1
p133 c2 74 1
p134 c2 77 1
p135 c3 85 1
p136 c2 81 1
p137 c1 57 1
p138 c3 26 1
p139 c3 33 1
p140 c3 84 1
p141 c2 3 1
p142 c4 5 1
p143 c2 62 1
p144 c2 6 1
p145 c3 63 1
p146 c2 12 1
p147 c3 66 1
p148 c2 40 1
p149 c4 85 1
p150 c2 76 1
p151 c2 3 1
p152 c1 2 1
p153 c2 9 1
p154 c4 5 1
p155 c3 56 1
p156 c4 61 1
p157 c2 23 1
p158 c2 46 1
p159 c3 30 1
p160 c4 39 1
p161 c2 9 1
p162 c2 29 1
p163 c3 62 1
p164 c2 33 1
p165 c2 78 1
p166 c2 77 1
p167 c1 89 1
p168 c4 65 1
p169 c1 78 1
p170 c3 90 1
p171 c2 61 1
p172 c1 58 1
p173 c3 31 1
p174 c1 20 1
p175 c3 43 1
p176 c3 22 1
p177 c3 17 1
p178 c2 18 1
p179 c3 63 1
p180 c1 47 1
p181 c1 12 1
p182 c1 49 1
p183 c3 15 1
p184 c2 22 1
p185 c3 28 1
p186 c4 78 1
p187 c4 26 1
p188 c1 15 1
p189 c3 12 1
p190 c2 79 1
p191 c1 22 1
p192 c1 11 1
p193 c1 57 1
p194 c3 11 1
p195 c4 57 1
p196 c4 76 1
p197 c3 14 1
p198 c2 34 1
p199 c3 67 1
p200 c1 52 1
p201 c4 4 1
p202 c1 45 1
p203 c1 12 1
p204 c1 47 1
p205 c3 40 1
p206 c4 38 1
p207 c4 85 1
p208 c1 31 1
p209 c3 5 1
p210 c3 25 1
p211 c4 10 1
p212 c4 61 1
p213 c3 37 1
p214 c1 63 1
p215 c1 53 1
p216 c2 48 1
p217 c3 19 1
p218 c4 82 1
p219 c3 5 1
p220 c1 44 1
p221 c4 48 1
p222 c2 32 1
p223 c4 50 1
p224 c3 34 1
p225 c3 73 1
p226 c3 78 1
p227 c2 70 1
p228 c4 41 1
p229 c2 26 1
p230 c4 40 1
p231 c2 77 1
p232 c1 9 1
p233 c2 82 1
p234 c3 37 1
p235 c1 56 1
p236 c4 15 1
p237 c4 47 1
p238 c3 70 1
p239 c1 83 1
p240 c2 63 1
p241 c3 47 1
p242 c4 65 1
p243 c4 48 1
p244 c2 27 1
p245 c4 81 1
p246 c3 53 1
p247 c3 46 1
p248 c4 20 1
p249 c3 2 1
p250 c4 4 1
;

param FMAX := 1 ;
param FMIN := 0 ;
param TAD := 0 ;
param TLS := 1 ;
